NAME : a280.tour
COMMENT : Optimum tour for a280.tsp (Length 2579)
TYPE : TOUR
DIMENSION : 280
TOUR_SECTION  
39
40
41
42
43
60
61
118
117
115
114
113
116
86
87
84
85
66
65
64
63
62
59
44
45
46
47
48
49
50
51
52
53
54
55
56
57
58
68
69
67
70
71
72
73
74
76
75
77
78
79
80
81
82
83
88
112
111
110
108
109
89
90
91
92
93
94
95
96
97
98
99
100
101
102
103
104
105
106
107
174
173
171
172
170
169
168
167
166
165
164
163
162
161
175
160
159
158
157
119
120
121
122
123
124
125
126
127
128
21
130
129
154
155
153
156
152
151
177
178
150
179
180
176
181
182
183
184
185
186
187
188
189
190
191
192
193
197
194
195
196
201
198
199
200
202
203
204
205
206
207
210
211
212
213
214
215
216
217
218
219
220
221
222
223
224
225
226
227
228
229
230
251
250
247
244
245
246
231
232
233
234
235
236
237
238
239
240
241
243
242
2
1
280
3
279
278
248
249
256
255
252
209
208
253
254
257
258
259
260
261
262
263
264
265
266
140
141
142
143
144
145
146
147
148
149
139
138
137
267
268
136
135
269
270
134
133
132
131
20
19
18
17
16
271
272
273
274
275
276
277
4
5
6
7
9
8
10
11
12
15
13
14
24
23
25
22
26
27
28
29
30
31
32
33
34
35
36
37
38
-1
EOF
